\ LP format - for model browsing. Use MPS format to capture full model detail.
Minimize
  0 B10(0) + 0 B17(0) + 0 B18(0) + 0 B22(0) + 0 B23(0) + 0 B24(0) + 0 B28(0)
   + 0 B29(0) + 0 B31(0) + 0 B34(0) + 0 B35(0) + 0 B36(0) + 0 B37(0)
   + 0 B38(0) + 0 B40(0) + 0 B41(0) + 0 B42(0) + 0 B43(0) + 0 B45(0)
   + I56(1)
Subject To
 c0: 87 B0(14) + I46(16) - 1e+07 B57(5) >= -9.99952e+06
 c1: 87 B0(14) + I46(16) - 1e+07 B57(5) <= 480
 c2: 95 B1(12) + I47(14) - 1e+07 B58(5) >= -9.99952e+06
 c3: 95 B1(12) + I47(14) - 1e+07 B58(5) <= 480
 c4: 73 B3(14) + I49(16) - 1e+07 B59(5) >= -9.99952e+06
 c5: 73 B3(14) + I49(16) - 1e+07 B59(5) <= 480
 c6: 43 B6(14) + I52(16) - 1e+07 B60(5) >= -9.99952e+06
 c7: 43 B6(14) + I52(16) - 1e+07 B60(5) <= 480
 c8: 61 B7(14) + I53(16) - 1e+07 B61(5) >= -9.99952e+06
 c9: 61 B7(14) + I53(16) - 1e+07 B61(5) <= 480
 c10: B57(5) >= 0
 c11: B58(5) >= 0
 c12: B59(5) >= 0
 c13: B60(5) >= 0
 c14: B61(5) >= 0
 c15: B0(14) + B1(12) = 1
 c16: B2(14) = 1
 c17: B3(14) = 1
 c18: B4(12) + B5(14) = 1
 c19: B6(14) + B7(14) = 1
 c20: B8(14) + B9(14) = 1
 c21: - 1e+07 B0(14) + I46(16) <= 0
 c22: - 1e+07 B1(12) + I47(14) <= 0
 c23: - 1e+07 B2(14) + I48(14) <= 0
 c24: - 1e+07 B3(14) + I49(16) <= 0
 c25: - 1e+07 B4(12) + I50(12) <= 0
 c26: - 1e+07 B5(14) + I51(14) <= 0
 c27: - 1e+07 B6(14) + I52(16) <= 0
 c28: - 1e+07 B7(14) + I53(16) <= 0
 c29: - 1e+07 B8(14) + I54(14) <= 0
 c30: - 1e+07 B9(14) + I55(14) <= 0
 c31: - 43 B2(14) + I46(16) + I47(14) - I48(14) >= 0
 c32: - 63 B4(12) - 53 B5(14) + I49(16) - I50(12) - I51(14) >= 0
 c33: - 125 B8(14) - 135 B9(14) + I52(16) + I53(16) - I54(14) - I55(14)
   >= 0
 c34: - 1e+07 B0(14) - 1e+07 B2(14) + 1e+07 B11(2) - I46(16) + I48(14)
   >= -1.9999388e+07
 c35: - 1e+07 B0(14) - 1e+07 B2(14) - 1e+07 B11(2) + I46(16) - I48(14)
   >= -2.9999827e+07
 c36: - 1e+07 B1(12) - 1e+07 B3(14) + 1e+07 B12(2) - I47(14) + I49(16)
   >= -1.9999555e+07
 c37: - 1e+07 B1(12) - 1e+07 B3(14) - 1e+07 B12(2) + I47(14) - I49(16)
   >= -2.9999759e+07
 c38: - 1e+07 B0(14) - 1e+07 B4(12) + 1e+07 B13(4) - I46(16) + I50(12)
   >= -1.9999613e+07
 c39: - 1e+07 B0(14) - 1e+07 B4(12) - 1e+07 B13(4) + I46(16) - I50(12)
   >= -2.9999601e+07
 c40: - 1e+07 B1(12) - 1e+07 B5(14) + 1e+07 B13(4) - I47(14) + I51(14)
   >= -1.9999725e+07
 c41: - 1e+07 B1(12) - 1e+07 B5(14) - 1e+07 B13(4) + I47(14) - I51(14)
   >= -2.9999707e+07
 c42: - 1e+07 B0(14) - 1e+07 B6(14) + 1e+07 B14(4) - I46(16) + I52(16)
   >= -1.9999791e+07
 c43: - 1e+07 B0(14) - 1e+07 B6(14) - 1e+07 B14(4) + I46(16) - I52(16)
   >= -2.9999833e+07
 c44: - 1e+07 B1(12) - 1e+07 B7(14) + 1e+07 B14(4) - I47(14) + I53(16)
   >= -1.9999572e+07
 c45: - 1e+07 B1(12) - 1e+07 B7(14) - 1e+07 B14(4) + I47(14) - I53(16)
   >= -2.9999886e+07
 c46: - 1e+07 B0(14) - 1e+07 B8(14) + 1e+07 B15(4) - I46(16) + I54(14)
   >= -1.9999608e+07
 c47: - 1e+07 B0(14) - 1e+07 B8(14) - 1e+07 B15(4) + I46(16) - I54(14)
   >= -2.999977e+07
 c48: - 1e+07 B1(12) - 1e+07 B9(14) + 1e+07 B15(4) - I47(14) + I55(14)
   >= -1.999974e+07
 c49: - 1e+07 B1(12) - 1e+07 B9(14) - 1e+07 B15(4) + I47(14) - I55(14)
   >= -2.999925e+07
 c50: - 1e+07 B0(14) - 1e+07 B2(14) + 1e+07 B16(2) + I46(16) - I48(14)
   >= -1.9999827e+07
 c51: - 1e+07 B0(14) - 1e+07 B2(14) - 1e+07 B16(2) - I46(16) + I48(14)
   >= -2.9999388e+07
 c52: - 1e+07 B2(14) - 1e+07 B4(12) + 1e+07 B19(2) - I48(14) + I50(12)
   >= -1.9999561e+07
 c53: - 1e+07 B2(14) - 1e+07 B4(12) - 1e+07 B19(2) + I48(14) - I50(12)
   >= -2.9999347e+07
 c54: - 1e+07 B2(14) - 1e+07 B6(14) + 1e+07 B20(2) - I48(14) + I52(16)
   >= -1.9999844e+07
 c55: - 1e+07 B2(14) - 1e+07 B6(14) - 1e+07 B20(2) + I48(14) - I52(16)
   >= -2.9999307e+07
 c56: - 1e+07 B2(14) - 1e+07 B8(14) + 1e+07 B21(2) - I48(14) + I54(14)
   >= -1.9999425e+07
 c57: - 1e+07 B2(14) - 1e+07 B8(14) - 1e+07 B21(2) + I48(14) - I54(14)
   >= -2.9999674e+07
 c58: - 1e+07 B3(14) - 1e+07 B5(14) + 1e+07 B25(2) - I49(16) + I51(14)
   >= -1.9999603e+07
 c59: - 1e+07 B3(14) - 1e+07 B5(14) - 1e+07 B25(2) + I49(16) - I51(14)
   >= -2.9999615e+07
 c60: - 1e+07 B3(14) - 1e+07 B7(14) + 1e+07 B26(2) - I49(16) + I53(16)
   >= -1.9999588e+07
 c61: - 1e+07 B3(14) - 1e+07 B7(14) - 1e+07 B26(2) + I49(16) - I53(16)
   >= -2.9999574e+07
 c62: - 1e+07 B3(14) - 1e+07 B9(14) + 1e+07 B27(2) - I49(16) + I55(14)
   >= -1.9999814e+07
 c63: - 1e+07 B3(14) - 1e+07 B9(14) - 1e+07 B27(2) + I49(16) - I55(14)
   >= -2.9999685e+07
 c64: - 1e+07 B3(14) - 1e+07 B5(14) + 1e+07 B30(2) + I49(16) - I51(14)
   >= -1.9999615e+07
 c65: - 1e+07 B3(14) - 1e+07 B5(14) - 1e+07 B30(2) - I49(16) + I51(14)
   >= -2.9999603e+07
 c66: - 1e+07 B4(12) - 1e+07 B6(14) + 1e+07 B32(4) - I50(12) + I52(16)
   >= -1.9999805e+07
 c67: - 1e+07 B4(12) - 1e+07 B6(14) - 1e+07 B32(4) + I50(12) - I52(16)
   >= -2.9999699e+07
 c68: - 1e+07 B5(14) - 1e+07 B7(14) + 1e+07 B32(4) - I51(14) + I53(16)
   >= -1.9999826e+07
 c69: - 1e+07 B5(14) - 1e+07 B7(14) - 1e+07 B32(4) + I51(14) - I53(16)
   >= -2.9999459e+07
 c70: - 1e+07 B4(12) - 1e+07 B8(14) + 1e+07 B33(4) - I50(12) + I54(14)
   >= -1.9999628e+07
 c71: - 1e+07 B4(12) - 1e+07 B8(14) - 1e+07 B33(4) + I50(12) - I54(14)
   >= -2.9999705e+07
 c72: - 1e+07 B5(14) - 1e+07 B9(14) + 1e+07 B33(4) - I51(14) + I55(14)
   >= -1.9999893e+07
 c73: - 1e+07 B5(14) - 1e+07 B9(14) - 1e+07 B33(4) + I51(14) - I55(14)
   >= -2.9999665e+07
 c74: - 1e+07 B6(14) - 1e+07 B8(14) + 1e+07 B39(4) - I52(16) + I54(14)
   >= -1.9999798e+07
 c75: - 1e+07 B6(14) - 1e+07 B8(14) - 1e+07 B39(4) + I52(16) - I54(14)
   >= -2.9999814e+07
 c76: - 1e+07 B7(14) - 1e+07 B9(14) + 1e+07 B39(4) - I53(16) + I55(14)
   >= -1.9999576e+07
 c77: - 1e+07 B7(14) - 1e+07 B9(14) - 1e+07 B39(4) + I53(16) - I55(14)
   >= -2.9999769e+07
 c78: - 1e+07 B6(14) - 1e+07 B8(14) + 1e+07 B44(4) + I52(16) - I54(14)
   >= -1.9999814e+07
 c79: - 1e+07 B6(14) - 1e+07 B8(14) - 1e+07 B44(4) - I52(16) + I54(14)
   >= -2.9999798e+07
 c80: - 1e+07 B7(14) - 1e+07 B9(14) + 1e+07 B44(4) + I53(16) - I55(14)
   >= -1.9999769e+07
 c81: - 1e+07 B7(14) - 1e+07 B9(14) - 1e+07 B44(4) - I53(16) + I55(14)
   >= -2.9999576e+07
 c82: I46(16) >= 0
 c83: I47(14) >= 0
 c84: - 480 B2(14) + I48(14) >= 0
 c85: I48(14) >= 0
 c86: I49(16) >= 0
 c87: - 480 B4(12) + I50(12) >= 0
 c88: I50(12) >= 0
 c89: - 480 B5(14) + I51(14) >= 0
 c90: I51(14) >= 0
 c91: I52(16) >= 0
 c92: I53(16) >= 0
 c93: - 480 B8(14) + I54(14) >= 0
 c94: I54(14) >= 0
 c95: - 480 B9(14) + I55(14) >= 0
 c96: I55(14) >= 0
 qc0: I56(1) + 393 B57(5) + 385 B58(5) + 407 B59(5) + 437 B60(5)
   + 419 B61(5) + [ - I46(16) * B57(5) - I47(14) * B58(5)
   - I49(16) * B59(5) - I52(16) * B60(5) - I53(16) * B61(5) ] >= 0
Bounds
Binaries
 B0(14) B1(12) B2(14) B3(14) B4(12) B5(14) B6(14) B7(14) B8(14) B9(14)
 B10(0) B11(2) B12(2) B13(4) B14(4) B15(4) B16(2) B17(0) B18(0) B19(2)
 B20(2) B21(2) B22(0) B23(0) B24(0) B25(2) B26(2) B27(2) B28(0) B29(0)
 B30(2) B31(0) B32(4) B33(4) B34(0) B35(0) B36(0) B37(0) B38(0) B39(4)
 B40(0) B41(0) B42(0) B43(0) B44(4) B45(0) B57(5) B58(5) B59(5) B60(5)
 B61(5)
Generals
 I46(16) I47(14) I48(14) I49(16) I50(12) I51(14) I52(16) I53(16) I54(14)
 I55(14) I56(1)
End
